WARNING: for repeatability, setting FPU to use double precision
============================[ Problem Statistics ]=============================
|                                                                             |
|  Number of variables:            50                                         |
|  Number of clauses:             218                                         |
|  Parse time:                   0.00 s                                       |
|                                                                             |
============================[ Search Statistics ]==============================
| Conflicts |          ORIGINAL         |          LEARNT          | Progress |
|           |    Vars  Clauses Literals |    Limit  Clauses Lit/Cl |          |
===============================================================================
===============================================================================
restarts              : 1
conflicts             : 30             (136986 /sec)
decisions             : 46             (0.00 % random) (210046 /sec)
propagations          : 430            (1963470 /sec)
conflict literals     : 141            (8.44 % deleted)
Memory used           : 20.00 MB
CPU time              : 0.000219 s

SATISFIABLE
